p max 10 20
n 1 s
n 10 t

a 1 2 20
a 1 3 10
a 1 4 18
a 2 3 7
a 2 7 10
a 3 4 4
a 3 5 6
a 3 6 6
a 4 6 7
a 4 9 12
a 5 7 9
a 5 8 3
a 5 10 4
a 6 5 6
a 6 8 10
a 7 10 8
a 8 7 2
a 8 10 4
a 9 8 8
a 9 10 11